Problem:    6
Rows:       20
Columns:    64 (64 integer, 64 binary)
Non-zeros:  128
Status:     INTEGER OPTIMAL
Objective:  z = 3 (MINimum)

   No.   Row name        Activity     Lower bound   Upper bound
------ ------------    ------------- ------------- -------------
     1 capacitaMax[1]
                                   0                          -0 
     2 capacitaMax[2]
                                   0                          -0 
     3 capacitaMax[3]
                                   0                          -0 
     4 capacitaMax[4]
                                   0                          -0 
     5 assegnamento[1]
                                   1             1             = 
     6 assegnamento[2]
                                   1             1             = 
     7 assegnamento[3]
                                   1             1             = 
     8 assegnamento[4]
                                   1             1             = 
     9 assegnamento[5]
                                   1             1             = 
    10 assegnamento[6]
                                   1             1             = 
    11 assegnamento[7]
                                   1             1             = 
    12 assegnamento[8]
                                   1             1             = 
    13 assegnamento[9]
                                   1             1             = 
    14 assegnamento[10]
                                   1             1             = 
    15 assegnamento[11]
                                   1             1             = 
    16 assegnamento[12]
                                   1             1             = 
    17 assegnamento[13]
                                   1             1             = 
    18 assegnamento[14]
                                   1             1             = 
    19 assegnamento[15]
                                   1             1             = 
    20 z                           3                             

   No. Column name       Activity     Lower bound   Upper bound
------ ------------    ------------- ------------- -------------
     1 y[1]         *              0             0             1 
     2 y[2]         *              1             0             1 
     3 y[3]         *              1             0             1 
     4 y[4]         *              1             0             1 
     5 x[1,1]       *              0             0             1 
     6 x[2,1]       *              0             0             1 
     7 x[3,1]       *              0             0             1 
     8 x[4,1]       *              0             0             1 
     9 x[5,1]       *              0             0             1 
    10 x[6,1]       *              0             0             1 
    11 x[7,1]       *              0             0             1 
    12 x[8,1]       *              0             0             1 
    13 x[9,1]       *              0             0             1 
    14 x[10,1]      *              0             0             1 
    15 x[11,1]      *              0             0             1 
    16 x[12,1]      *              0             0             1 
    17 x[13,1]      *              0             0             1 
    18 x[14,1]      *              0             0             1 
    19 x[15,1]      *              0             0             1 
    20 x[1,2]       *              1             0             1 
    21 x[2,2]       *              0             0             1 
    22 x[3,2]       *              1             0             1 
    23 x[4,2]       *              0             0             1 
    24 x[5,2]       *              1             0             1 
    25 x[6,2]       *              0             0             1 
    26 x[7,2]       *              0             0             1 
    27 x[8,2]       *              0             0             1 
    28 x[9,2]       *              0             0             1 
    29 x[10,2]      *              0             0             1 
    30 x[11,2]      *              0             0             1 
    31 x[12,2]      *              0             0             1 
    32 x[13,2]      *              1             0             1 
    33 x[14,2]      *              0             0             1 
    34 x[15,2]      *              0             0             1 
    35 x[1,3]       *              0             0             1 
    36 x[2,3]       *              0             0             1 
    37 x[3,3]       *              0             0             1 
    38 x[4,3]       *              1             0             1 
    39 x[5,3]       *              0             0             1 
    40 x[6,3]       *              0             0             1 
    41 x[7,3]       *              1             0             1 
    42 x[8,3]       *              0             0             1 
    43 x[9,3]       *              0             0             1 
    44 x[10,3]      *              1             0             1 
    45 x[11,3]      *              0             0             1 
    46 x[12,3]      *              1             0             1 
    47 x[13,3]      *              0             0             1 
    48 x[14,3]      *              1             0             1 
    49 x[15,3]      *              1             0             1 
    50 x[1,4]       *              0             0             1 
    51 x[2,4]       *              1             0             1 
    52 x[3,4]       *              0             0             1 
    53 x[4,4]       *              0             0             1 
    54 x[5,4]       *              0             0             1 
    55 x[6,4]       *              1             0             1 
    56 x[7,4]       *              0             0             1 
    57 x[8,4]       *              1             0             1 
    58 x[9,4]       *              1             0             1 
    59 x[10,4]      *              0             0             1 
    60 x[11,4]      *              1             0             1 
    61 x[12,4]      *              0             0             1 
    62 x[13,4]      *              0             0             1 
    63 x[14,4]      *              0             0             1 
    64 x[15,4]      *              0             0             1 

Integer feasibility conditions:

KKT.PE: max.abs.err = 0.00e+000 on row 0
        max.rel.err = 0.00e+000 on row 0
        High quality

KKT.PB: max.abs.err = 0.00e+000 on row 0
        max.rel.err = 0.00e+000 on row 0
        High quality

End of output
